
Gurobi 8.0.1 (linux64, Python) logging started Tue Oct 16 08:16:21 2018

Academic license - for non-commercial use only
Optimize a model with 3 rows, 2 columns and 4 nonzeros
Coefficient statistics:
  Matrix range     [1e+00, 3e+00]
  Objective range  [3e+00, 5e+00]
  Bounds range     [0e+00, 0e+00]
  RHS range        [4e+00, 2e+01]
Presolve removed 2 rows and 0 columns
Presolve time: 0.01s
Presolved: 1 rows, 2 columns, 2 nonzeros

Iteration    Objective       Primal Inf.    Dual Inf.      Time
       0    4.5000000e+01   1.500000e+00   0.000000e+00      0s
       1    3.6000000e+01   0.000000e+00   0.000000e+00      0s

Solved in 1 iterations and 0.01 seconds
Optimal objective  3.600000000e+01

    Variable            x 
-------------------------
          x1            2 
          x2            6 

Gurobi 8.0.1 (linux64, Python) logging started Tue Oct 16 08:16:29 2018

Academic license - for non-commercial use only
Optimize a model with 65 rows, 96 columns and 258 nonzeros
Coefficient statistics:
  Matrix range     [1e+00, 9e+00]
  Objective range  [5e+00, 2e+02]
  Bounds range     [0e+00, 0e+00]
  RHS range        [2e+02, 5e+02]
Presolve removed 28 rows and 45 columns
Presolve time: 0.01s
Presolved: 37 rows, 51 columns, 149 nonzeros

Iteration    Objective       Primal Inf.    Dual Inf.      Time
       0    3.7425000e+05   1.065625e+03   0.000000e+00      0s
      28    1.0784259e+05   0.000000e+00   0.000000e+00      0s

Solved in 28 iterations and 0.01 seconds
Optimal objective  1.078425926e+05
Optimize a model with 65 rows, 96 columns and 258 nonzeros
Coefficient statistics:
  Matrix range     [1e+00, 9e+00]
  Objective range  [5e+00, 2e+02]
  Bounds range     [0e+00, 0e+00]
  RHS range        [2e+02, 5e+02]
Presolve removed 28 rows and 45 columns
Presolve time: 0.00s
Presolved: 37 rows, 51 columns, 149 nonzeros

Iteration    Objective       Primal Inf.    Dual Inf.      Time
       0    3.7425000e+05   1.065625e+03   0.000000e+00      0s
      28    1.0784259e+05   0.000000e+00   0.000000e+00      0s

Solved in 28 iterations and 0.01 seconds
Optimal objective  1.078425926e+05
